NAME : eil13
COMMENT : (Eilon et al.)
TYPE : CVRP
DIMENSION : 13
EDGE_WEIGHT_TYPE : EXPLICIT
CAPACITY : 6000
NODE_COORD_SECTION
1 9 14
2 21 23
3 22 25
4 32 36
5 38 42
6 50 52
7 5 12
8 22 21
9 24 31
10 35 37
11 41 49
12 51 7
13 17 16
DEMAND_SECTION
1 0
2 1200
3 1700
4 1500
5 1400
6 1700
7 1400
8 1200
9 1900
10 1800
11 1600
12 1700
13 1100
DEPOT_SECTION
1
-1
EOF

